
Gurobi 13.0.1 (win64) logging started Fri Apr 10 05:54:58 2026

Set parameter LogFile to value "C:\Users\jiho\code\cloud_vmp_optimization\experiments\2604-chance-2sp-toy\results\runs\chance_2sp_toy_24vm_combination_od_sp_bj_od8_sp8_bj8_sc10_cap8_avg20_lam010\solver.log"
Set parameter Threads to value 8
Gurobi Optimizer version 13.0.1 build v13.0.1rc0 (win64 - Windows 11+.0 (26200.2))

CPU model: 13th Gen Intel(R) Core(TM) i9-13900K, instruction set [SSE2|AVX|AVX2]
Thread count: 24 physical cores, 32 logical processors, using up to 8 threads

Non-default parameters:
TimeLimit  7200
MIPGap  0.001
Threads  8

Optimize a model with 61905 rows, 41994 columns and 462770 nonzeros (Min)
Model fingerprint: 0x958732d7
Model has 190 linear objective coefficients
Variable types: 1440 continuous, 40554 integer (40554 binary)
Coefficient statistics:
  Matrix range     [2e-02, 3e+01]
  Objective range  [1e-02, 1e+00]
  Bounds range     [1e+00, 1e+00]
  RHS range        [1e-01, 2e+01]

Presolve removed 4128 rows and 3024 columns
Presolve time: 1.64s
Presolved: 57777 rows, 38970 columns, 454514 nonzeros
Variable types: 0 continuous, 38970 integer (38970 binary)
Deterministic concurrent LP optimizer: primal and dual simplex
Showing primal log only...


Root simplex log...

Iteration    Objective       Primal Inf.    Dual Inf.      Time
   12652    3.3534546e+00   0.000000e+00   1.751906e+03      5s
   18432    2.8469860e+00   0.000000e+00   5.314636e+03     10s
   22752    2.5556299e+00   0.000000e+00   2.522882e+03     15s
   26802    2.3716537e+00   0.000000e+00   1.301711e+04     20s
   30692    2.1876458e+00   0.000000e+00   7.744736e+03     25s
Warning: Markowitz tolerance tightened to 0.03125
   34032    2.0157571e+00   0.000000e+00   2.888660e+03     30s
   36982    1.9235970e+00   0.000000e+00   2.838677e+03     35s
   40092    1.8745596e+00   0.000000e+00   5.495386e+04     40s
   43052    1.7840752e+00   0.000000e+00   1.175668e+03     45s
   46002    1.7142663e+00   0.000000e+00   1.253124e+03     50s
   48762    1.6403499e+00   0.000000e+00   1.924083e+04     55s
   51292    1.5831655e+00   0.000000e+00   8.315493e+02     60s
   53222    1.5008283e+00   0.000000e+00   8.256667e+02     65s
   55172    1.4652491e+00   0.000000e+00   1.553453e+03     70s
   57102    1.4183537e+00   0.000000e+00   7.049354e+02     75s
   58842    1.3827377e+00   0.000000e+00   4.873542e+02     80s
   60502    1.3484597e+00   0.000000e+00   8.126331e+02     85s
   62072    1.3244442e+00   0.000000e+00   4.752983e+03     90s
   63922    1.2826578e+00   0.000000e+00   3.469057e+03     95s
   65522    1.2461138e+00   0.000000e+00   3.210724e+04    100s
   67482    1.2000237e+00   0.000000e+00   9.524205e+02    105s
   69562    1.1406782e+00   0.000000e+00   2.793436e+03    110s
   71322    1.1263785e+00   0.000000e+00   2.502280e+02    115s
   72642    1.1199173e+00   0.000000e+00   9.811677e+02    121s
   73672    1.1136723e+00   0.000000e+00   3.209228e+03    125s
Concurrent spin time: 0.00s

Solved with dual simplex

Root simplex log...

Iteration    Objective       Primal Inf.    Dual Inf.      Time
   67828    1.0000000e+00   0.000000e+00   0.000000e+00    130s

Root relaxation: objective 1.000000e+00, 67828 iterations, 128.50 seconds (174.84 work units)

    Nodes    |    Current Node    |     Objective Bounds      |     Work
 Expl Unexpl |  Obj  Depth IntInf | Incumbent    BestBd   Gap | It/Node Time

     0     0    1.00000    0 14568          -    1.00000      -     -  763s
     0     0    2.01152    0 11214          -    2.01152      -     - 1551s
H    0     0                       5.0000000    2.01152  59.8%     - 1551s
H    0     0                       4.0000000    2.01152  49.7%     - 1583s
     0     0    2.02286    0 9618    4.00000    2.02286  49.4%     - 2135s
     0     0    2.10311    0 6543    4.00000    2.10311  47.4%     - 2177s
     0     0    2.12645    0 6982    4.00000    2.12645  46.8%     - 2220s
     0     0    2.12645    0 6946    4.00000    2.12645  46.8%     - 2222s
     0     0    2.14368    0 7595    4.00000    2.14368  46.4%     - 2262s
     0     0    2.14397    0 7570    4.00000    2.14397  46.4%     - 2275s
     0     0    3.00000    0 7779    4.00000    3.00000  25.0%     - 2326s
     0     0    3.00000    0 7803    4.00000    3.00000  25.0%     - 2345s
     0     0    3.00000    0 4934    4.00000    3.00000  25.0%     - 2427s
     0     0    3.00000    0 4711    4.00000    3.00000  25.0%     - 2428s
     0     0    3.00000    0 5055    4.00000    3.00000  25.0%     - 2432s
     0     0    3.00000    0 4974    4.00000    3.00000  25.0%     - 2434s
     0     0    3.00000    0 5180    4.00000    3.00000  25.0%     - 2436s
     0     0    3.00000    0 2097    4.00000    3.00000  25.0%     - 2497s
     0     0    3.00000    0 2062    4.00000    3.00000  25.0%     - 2499s
     0     0    3.00000    0 2428    4.00000    3.00000  25.0%     - 2503s
     0     0    3.00000    0 1909    4.00000    3.00000  25.0%     - 2605s
     0     0    3.00000    0 1861    4.00000    3.00000  25.0%     - 2608s
     0     0    3.00000    0 2198    4.00000    3.00000  25.0%     - 2612s
     0     0    3.00000    0 1946    4.00000    3.00000  25.0%     - 2626s
     0     0    3.00000    0 1963    4.00000    3.00000  25.0%     - 2627s
     0     0    3.00000    0 2428    4.00000    3.00000  25.0%     - 2631s
     0     0    3.00000    0 2035    4.00000    3.00000  25.0%     - 2666s
     0     0    3.00000    0 2267    4.00000    3.00000  25.0%     - 2666s
     0     0    3.00000    0 2551    4.00000    3.00000  25.0%     - 2669s
     0     0    3.00000    0 2285    4.00000    3.00000  25.0%     - 2705s
     0     0    3.00000    0 2285    4.00000    3.00000  25.0%     - 2705s
     0     0    3.00000    0 2069    4.00000    3.00000  25.0%     - 2714s
     0     2    3.00000    0 2069    4.00000    3.00000  25.0%     - 2724s
     1     5    3.00000    1 2195    4.00000    3.00000  25.0%  1667 2729s
     3     8    3.00000    2 2743    4.00000    3.00000  25.0%  4628 2737s
     7    14 infeasible    3         4.00000    3.00000  25.0%  3550 2746s
    15    22    3.00000    4 3488    4.00000    3.00000  25.0%  4928 2755s
    23    41    3.00000    5 3398    4.00000    3.00000  25.0%  5870 2799s
    42   111    3.00000    7 3093    4.00000    3.00000  25.0%  4077 2850s
   114   179    3.00000   10 2532    4.00000    3.00000  25.0%  3236 2924s
   182   240    3.00000   19 2181    4.00000    3.00000  25.0%  3535 3065s
   273   444    3.00000   24 2035    4.00000    3.00000  25.0%  4303 3287s
   615   418 infeasible   51         4.00000    3.00000  25.0%  4257 3594s
   757   413 infeasible   26         4.00000    3.00000  25.0%  5776 3927s
   878   508    3.25965   20 4408    4.00000    3.00000  25.0%  6530 4287s
  1061   641    3.13799   32 3642    4.00000    3.00000  25.0%  7224 4702s
  1280   975    3.00000   46 2443    4.00000    3.00000  25.0%  7277 5235s
  1804  1004    3.32908   42 3524    4.00000    3.00000  25.0%  6934 5735s
  2061  1090    3.01087   42 3494    4.00000    3.00000  25.0%  7524 6329s
  2189  1090    3.47207   48 3301    4.00000    3.00000  25.0%  7986 6330s
  2305  1102    3.03251   28 3590    4.00000    3.00000  25.0%  8057 6956s
  2433  1099     cutoff   34         4.00000    3.00000  25.0%  8494 7200s

Cutting planes:
  Gomory: 80
  Cover: 7164
  MIR: 118
  StrongCG: 16
  GUB cover: 8
  Inf proof: 1
  Zero half: 59
  RLT: 604

Explored 2480 nodes (22669892 simplex iterations) in 7200.18 seconds (11697.99 work units)
Thread count was 8 (of 32 available processors)

Solution count 2: 4 5 

Time limit reached
Best objective 4.000000000000e+00, best bound 3.000000000000e+00, gap 25.0000%
